77 78 88 89 90 87 86 85 84 83 82 57 81 80 79 62 63 61 60 59 58 56 55 53 54 52 51 50 49 48 47 46 45 44 43 42 39 41 40 38 37 36 35 33 34 558 559 550 548 549 560 561 562 563 564 565 566 567 568 569 570 17 18 19 20 21 24 25 26 27 28 29 30 32 31 22 23 12 13 14 15 16 11 10 9 8 7 6 5 4 3 2 1 0 573 572 571 466 467 468 469 470 471 472 473 474 475 476 477 478 479 480 481 482 483 484 485 486 487 534 535 536 537 539 538 540 176 175 174 173 172 170 171 169 177 178 182 179 180 181 184 183 185 186 187 188 229 228 230 231 533 488 489 532 531 530 529 528 490 491 492 493 525 524 494 495 518 519 498 497 496 465 464 463 462 461 460 459 458 457 456 455 454 438 437 436 435 434 433 432 430 429 428 431 445 444 443 439 442 449 448 446 447 381 380 379 378 377 376 375 315 314 316 374 373 322 323 324 325 326 327 328 329 366 367 365 368 369 370 372 371 396 395 398 397 394 393 391 392 390 389 388 387 386 382 425 424 426 427 423 422 421 420 419 417 418 410 411 412 356 357 355 354 353 413 414 416 415 352 351 350 347 348 349 358 359 360 401 402 403 400 404 405 409 384 383 385 408 407 406 399 364 363 361 362 346 345 344 343 342 341 340 330 331 332 333 339 338 337 336 335 334 283 284 285 286 287 280 281 282 279 278 277 276 288 289 290 275 274 273 292 291 294 295 296 293 270 268 269 272 271 267 266 265 264 263 262 261 260 259 258 299 298 297 321 320 319 317 318 305 306 304 303 307 308 309 310 313 312 311 451 450 441 440 453 452 499 500 501 502 503 517 520 521 522 523 526 527 512 511 510 509 513 514 515 516 504 505 506 507 508 302 301 300 257 256 255 253 254 252 251 250 249 248 241 242 243 244 245 247 246 238 239 240 237 236 235 234 233 232 225 226 189 227 190 191 192 193 219 218 220 221 222 224 223 217 216 215 214 213 212 211 210 209 194 195 196 197 205 206 207 208 198 199 200 201 202 204 203 165 164 166 167 163 168 162 160 161 113 112 114 111 110 109 108 107 542 541 544 545 546 547 543 103 102 551 101 100 99 98 554 553 552 557 556 555 91 92 93 94 97 96 95 104 105 106 115 116 117 124 125 126 127 128 129 130 131 132 133 134 135 136 144 146 145 158 157 159 156 155 154 153 147 148 152 149 150 151 143 142 141 140 139 137 138 69 70 68 67 66 65 72 71 123 122 121 120 118 119 73 74 75 64 76